25° run output:
{
    "Function": "euclidA300.tsp",
    "Problem dimension": [
        194,
        211,
        136,
        152,
        6,
        234,
        52,
        64,
        229,
        243,
        158,
        262,
        160,
        40,
        287,
        46,
        277,
        197,
        213,
        29,
        286,
        147,
        294,
        45,
        79,
        201,
        179,
        83,
        247,
        190,
        120,
        172,
        171,
        9,
        100,
        41,
        47,
        151,
        257,
        176,
        42,
        292,
        16,
        186,
        196,
        114,
        281,
        223,
        280,
        53,
        221,
        77,
        82,
        15,
        28,
        189,
        44,
        174,
        68,
        60,
        149,
        155,
        109,
        241,
        216,
        167,
        20,
        283,
        80,
        240,
        7,
        215,
        203,
        212,
        92,
        17,
        101,
        291,
        252,
        290,
        267,
        259,
        248,
        133,
        159,
        119,
        81,
        105,
        199,
        236,
        274,
        193,
        146,
        219,
        88,
        132,
        195,
        1,
        261,
        180,
        210,
        74,
        289,
        207,
        127,
        222,
        249,
        90,
        295,
        170,
        264,
        70,
        137,
        62,
        168,
        258,
        204,
        202,
        278,
        270,
        10,
        253,
        298,
        129,
        18,
        239,
        23,
        118,
        276,
        39,
        54,
        206,
        237,
        271,
        2,
        58,
        228,
        33,
        140,
        154,
        117,
        78,
        192,
        142,
        187,
        107,
        205,
        97,
        233,
        185,
        34,
        104,
        55,
        87,
        4,
        110,
        138,
        153,
        123,
        182,
        8,
        225,
        98,
        162,
        72,
        191,
        165,
        14,
        0,
        3,
        299,
        184,
        76,
        59,
        220,
        231,
        112,
        156,
        232,
        73,
        125,
        65,
        94,
        63,
        22,
        113,
        173,
        218,
        273,
        5,
        263,
        128,
        27,
        265,
        48,
        106,
        227,
        188,
        282,
        135,
        102,
        279,
        30,
        255,
        284,
        145,
        49,
        148,
        111,
        254,
        242,
        209,
        269,
        164,
        134,
        166,
        37,
        124,
        126,
        25,
        130,
        157,
        246,
        163,
        38,
        31,
        57,
        235,
        169,
        178,
        296,
        285,
        131,
        35,
        67,
        268,
        288,
        266,
        250,
        175,
        32,
        143,
        121,
        181,
        75,
        93,
        208,
        297,
        103,
        50,
        272,
        12,
        200,
        183,
        275,
        99,
        238,
        150,
        139,
        71,
        226,
        214,
        260,
        293,
        198,
        244,
        61,
        24,
        141,
        115,
        116,
        161,
        51,
        11,
        86,
        66,
        96,
        69,
        91,
        224,
        89,
        256,
        108,
        56,
        21,
        84,
        26,
        43,
        144,
        36,
        177,
        95,
        122,
        251,
        230,
        217,
        19,
        85,
        13,
        245
    ],
    "Global Optimum": 0,
    "Algorithm": "Genetic algorithm",
    "Parameters": {
        "population": 30,
        "offspring": 30,
        "mutation probability": 0.0033333333333333335,
        "crossover probability": 0.9
    },
    "Fitness": 380022,
    "Solution": [
        194,
        211,
        136,
        152,
        6,
        234,
        52,
        64,
        229,
        243,
        158,
        262,
        160,
        40,
        287,
        46,
        277,
        197,
        213,
        29,
        286,
        147,
        294,
        45,
        79,
        201,
        179,
        83,
        247,
        190,
        120,
        172,
        171,
        9,
        100,
        41,
        47,
        151,
        257,
        176,
        42,
        292,
        16,
        186,
        196,
        114,
        281,
        223,
        280,
        53,
        221,
        77,
        82,
        15,
        28,
        189,
        44,
        174,
        68,
        60,
        149,
        155,
        109,
        241,
        216,
        167,
        20,
        283,
        80,
        240,
        7,
        215,
        203,
        212,
        92,
        17,
        101,
        291,
        252,
        290,
        267,
        259,
        248,
        133,
        159,
        119,
        81,
        105,
        199,
        236,
        274,
        193,
        146,
        219,
        88,
        132,
        195,
        1,
        261,
        180,
        210,
        74,
        289,
        207,
        127,
        222,
        249,
        90,
        295,
        170,
        264,
        70,
        137,
        62,
        168,
        258,
        204,
        202,
        278,
        270,
        10,
        253,
        298,
        129,
        18,
        239,
        23,
        118,
        276,
        39,
        54,
        206,
        237,
        271,
        2,
        58,
        228,
        33,
        140,
        154,
        117,
        78,
        192,
        142,
        187,
        107,
        205,
        97,
        233,
        185,
        34,
        104,
        55,
        87,
        4,
        110,
        138,
        153,
        123,
        182,
        8,
        225,
        98,
        162,
        72,
        191,
        165,
        14,
        0,
        3,
        299,
        184,
        76,
        59,
        220,
        231,
        112,
        156,
        232,
        73,
        125,
        65,
        94,
        63,
        22,
        113,
        173,
        218,
        273,
        5,
        263,
        128,
        27,
        265,
        48,
        106,
        227,
        188,
        282,
        135,
        102,
        279,
        30,
        255,
        284,
        145,
        49,
        148,
        111,
        254,
        242,
        209,
        269,
        164,
        134,
        166,
        37,
        124,
        126,
        25,
        130,
        157,
        246,
        163,
        38,
        31,
        57,
        235,
        169,
        178,
        296,
        285,
        131,
        35,
        67,
        268,
        288,
        266,
        250,
        175,
        32,
        143,
        121,
        181,
        75,
        93,
        208,
        297,
        103,
        50,
        272,
        12,
        200,
        183,
        275,
        99,
        238,
        150,
        139,
        71,
        226,
        214,
        260,
        293,
        198,
        244,
        61,
        24,
        141,
        115,
        116,
        161,
        51,
        11,
        86,
        66,
        96,
        69,
        91,
        224,
        89,
        256,
        108,
        56,
        21,
        84,
        26,
        43,
        144,
        36,
        177,
        95,
        122,
        251,
        230,
        217,
        19,
        85,
        13,
        245
    ],
    "Nb of functions evaluations": 50010,
    "Computational time in seconds": 142.25254440307617,
    "Stopping criterion in evaluations": 50000
}